jobs  (incl. supersource/sink ):	52
RESOURCES
- renewable                 : 2 R
- nonrenewable              : 2 N
- doubly constrained        : 0 D
************************************************************************
PRECEDENCE RELATIONS:
jobnr.    #modes  #successors   successors
1	1	14		2 3 4 5 7 9 11 14 16 18 19 21 24 51 
2	6	12		49 47 35 34 31 30 25 22 20 15 13 12 
3	6	8		50 48 35 34 33 29 27 6 
4	6	7		35 34 30 28 25 13 8 
5	6	7		50 43 32 30 25 22 10 
6	6	7		47 46 45 44 32 31 15 
7	6	11		49 47 44 43 41 40 39 34 31 27 26 
8	6	9		48 46 45 42 41 39 31 26 23 
9	6	7		50 47 44 40 29 26 22 
10	6	6		46 45 44 40 26 17 
11	6	10		49 45 44 43 42 41 40 39 37 31 
12	6	9		48 46 45 44 43 41 40 39 26 
13	6	7		48 44 41 33 32 27 26 
14	6	8		47 46 45 42 41 38 37 29 
15	6	5		43 41 39 28 26 
16	6	3		33 31 26 
17	6	6		48 47 42 41 39 36 
18	6	6		41 40 39 38 37 36 
19	6	3		50 40 26 
20	6	5		42 39 38 37 36 
21	6	2		43 26 
22	6	4		45 41 37 36 
23	6	4		44 43 40 37 
24	6	4		49 42 40 36 
25	6	1		26 
26	6	3		38 37 36 
27	6	3		42 38 37 
28	6	3		42 40 38 
29	6	3		49 43 36 
30	6	3		46 39 36 
31	6	2		38 36 
32	6	2		38 37 
33	6	1		39 
34	6	1		37 
35	6	1		44 
36	6	1		52 
37	6	1		52 
38	6	1		52 
39	6	1		52 
40	6	1		52 
41	6	1		52 
42	6	1		52 
43	6	1		52 
44	6	1		52 
45	6	1		52 
46	6	1		52 
47	6	1		52 
48	6	1		52 
49	6	1		52 
50	6	1		52 
51	6	1		52 
52	1	0		
************************************************************************
REQUESTS/DURATIONS
jobnr.	mode	dur	R1	R2	N1	N2	
------------------------------------------------------------------------
1	1	0	0	0	0	0	
2	1	7	4	3	12	17	
	2	9	3	3	9	15	
	3	11	3	3	9	13	
	4	15	2	3	8	11	
	5	18	1	3	5	9	
	6	19	1	3	4	7	
3	1	5	3	4	4	19	
	2	8	3	4	3	18	
	3	10	3	4	3	17	
	4	16	3	4	3	16	
	5	17	2	4	2	16	
	6	20	2	4	2	15	
4	1	2	4	1	13	12	
	2	10	3	1	12	11	
	3	13	2	1	10	8	
	4	15	2	1	8	6	
	5	18	1	1	4	5	
	6	20	1	1	2	4	
5	1	5	5	3	6	18	
	2	6	4	3	4	17	
	3	8	4	3	4	15	
	4	16	4	2	3	14	
	5	17	4	1	3	12	
	6	18	4	1	2	10	
6	1	3	1	3	6	14	
	2	6	1	2	5	12	
	3	12	1	2	5	11	
	4	13	1	2	5	10	
	5	14	1	2	4	9	
	6	15	1	2	3	8	
7	1	6	3	3	18	14	
	2	11	3	3	15	14	
	3	13	3	2	14	13	
	4	14	2	2	13	12	
	5	15	2	1	9	11	
	6	16	2	1	9	10	
8	1	2	4	3	6	19	
	2	7	3	2	6	17	
	3	8	3	2	6	16	
	4	11	2	2	5	16	
	5	17	1	2	4	16	
	6	18	1	2	4	15	
9	1	3	4	4	14	10	
	2	4	4	3	12	8	
	3	5	4	3	9	8	
	4	6	4	2	7	7	
	5	7	4	1	5	5	
	6	19	4	1	3	5	
10	1	3	4	1	15	7	
	2	4	3	1	15	7	
	3	5	3	1	15	5	
	4	8	2	1	14	4	
	5	14	1	1	14	4	
	6	18	1	1	13	3	
11	1	5	1	5	17	19	
	2	9	1	4	16	17	
	3	12	1	3	15	17	
	4	13	1	2	14	15	
	5	18	1	1	12	15	
	6	19	1	1	12	14	
12	1	12	3	5	9	11	
	2	13	2	4	8	11	
	3	14	2	3	7	11	
	4	15	2	3	6	11	
	5	17	1	2	6	11	
	6	20	1	2	5	11	
13	1	1	3	4	3	6	
	2	5	3	3	3	5	
	3	9	3	3	2	3	
	4	10	3	2	2	2	
	5	12	3	1	2	1	
	6	18	3	1	1	1	
14	1	4	2	3	17	17	
	2	7	2	2	15	17	
	3	10	2	2	15	14	
	4	13	2	1	14	11	
	5	16	2	1	12	10	
	6	20	2	1	11	6	
15	1	1	3	4	4	17	
	2	8	3	3	3	16	
	3	9	3	3	3	11	
	4	10	3	3	2	10	
	5	11	3	3	2	7	
	6	15	3	3	1	3	
16	1	2	1	5	19	13	
	2	7	1	4	18	12	
	3	9	1	3	18	10	
	4	13	1	3	17	9	
	5	16	1	2	17	6	
	6	19	1	1	17	5	
17	1	1	1	3	18	5	
	2	2	1	3	16	4	
	3	11	1	2	12	4	
	4	16	1	2	11	4	
	5	19	1	1	7	2	
	6	20	1	1	5	2	
18	1	1	5	4	2	16	
	2	13	4	4	1	16	
	3	15	4	4	1	14	
	4	18	4	4	1	12	
	5	19	4	4	1	10	
	6	20	4	4	1	8	
19	1	5	2	3	13	9	
	2	12	2	3	13	8	
	3	14	2	3	13	7	
	4	15	2	2	13	9	
	5	18	2	2	12	9	
	6	20	2	2	12	8	
20	1	4	2	5	6	5	
	2	5	2	4	6	4	
	3	10	2	4	4	3	
	4	11	2	4	3	3	
	5	12	1	4	2	2	
	6	20	1	4	2	1	
21	1	1	4	2	16	18	
	2	6	3	1	14	15	
	3	10	3	1	13	13	
	4	11	2	1	11	9	
	5	13	2	1	10	8	
	6	15	2	1	9	3	
22	1	3	2	2	10	17	
	2	4	1	1	10	16	
	3	5	1	1	7	12	
	4	9	1	1	6	11	
	5	18	1	1	5	9	
	6	20	1	1	3	8	
23	1	3	1	3	19	11	
	2	9	1	2	14	8	
	3	14	1	2	14	7	
	4	15	1	2	9	7	
	5	19	1	2	9	5	
	6	20	1	2	6	4	
24	1	4	2	4	13	14	
	2	7	2	3	13	11	
	3	9	2	2	10	10	
	4	15	2	2	7	8	
	5	17	2	2	5	5	
	6	20	2	1	5	4	
25	1	1	5	2	15	12	
	2	3	4	2	14	11	
	3	12	4	2	14	10	
	4	14	3	2	12	10	
	5	17	3	2	9	9	
	6	19	3	2	8	8	
26	1	3	1	4	17	10	
	2	8	1	4	15	10	
	3	11	1	3	14	9	
	4	13	1	3	13	9	
	5	17	1	2	10	7	
	6	18	1	1	8	7	
27	1	6	3	2	10	9	
	2	11	3	2	9	9	
	3	13	3	2	8	9	
	4	14	3	2	8	8	
	5	15	3	2	7	9	
	6	20	3	2	7	8	
28	1	9	3	3	19	17	
	2	10	2	3	17	14	
	3	13	2	3	16	13	
	4	14	2	3	16	11	
	5	16	2	3	14	7	
	6	17	2	3	14	6	
29	1	6	4	4	11	14	
	2	8	3	3	10	12	
	3	9	3	3	10	9	
	4	10	3	3	9	9	
	5	12	2	3	9	7	
	6	17	2	3	8	4	
30	1	5	5	5	17	15	
	2	7	4	4	14	12	
	3	9	4	4	12	11	
	4	15	3	3	11	9	
	5	17	3	3	9	6	
	6	19	2	3	7	4	
31	1	1	4	5	11	15	
	2	2	4	4	11	13	
	3	7	4	4	8	10	
	4	8	4	3	7	9	
	5	10	4	2	4	4	
	6	14	4	2	2	3	
32	1	1	2	2	11	8	
	2	2	1	2	9	8	
	3	8	1	2	9	7	
	4	9	1	2	7	8	
	5	12	1	2	5	7	
	6	16	1	2	4	7	
33	1	3	4	5	17	8	
	2	4	3	5	15	7	
	3	7	3	5	10	7	
	4	11	3	5	10	6	
	5	12	3	5	7	6	
	6	15	3	5	2	5	
34	1	3	5	4	12	16	
	2	7	5	3	12	14	
	3	11	5	3	11	14	
	4	13	5	2	11	10	
	5	17	5	1	11	7	
	6	19	5	1	10	7	
35	1	10	1	1	10	8	
	2	11	1	1	9	6	
	3	14	1	1	8	5	
	4	15	1	1	8	4	
	5	16	1	1	6	4	
	6	18	1	1	6	3	
36	1	2	2	1	15	16	
	2	7	2	1	14	15	
	3	13	2	1	14	12	
	4	14	1	1	14	11	
	5	15	1	1	14	10	
	6	16	1	1	14	8	
37	1	6	3	5	14	17	
	2	7	3	4	13	16	
	3	9	3	3	13	15	
	4	12	2	3	13	13	
	5	14	2	2	12	12	
	6	19	1	2	12	12	
38	1	3	5	3	10	16	
	2	4	5	3	8	15	
	3	7	5	3	7	13	
	4	8	5	3	5	13	
	5	13	5	3	4	11	
	6	14	5	3	3	11	
39	1	1	3	2	6	11	
	2	3	3	2	5	11	
	3	4	2	2	5	11	
	4	5	2	2	5	10	
	5	12	1	2	5	9	
	6	14	1	2	5	8	
40	1	4	4	1	12	15	
	2	10	4	1	11	11	
	3	11	4	1	10	11	
	4	13	4	1	9	10	
	5	14	4	1	6	6	
	6	17	4	1	5	6	
41	1	1	2	4	11	7	
	2	4	2	4	11	6	
	3	12	2	4	11	5	
	4	15	2	4	11	4	
	5	16	2	4	11	3	
	6	17	2	4	11	2	
42	1	8	4	4	19	10	
	2	9	4	3	18	9	
	3	10	3	3	17	9	
	4	11	2	3	16	8	
	5	18	1	3	15	8	
	6	19	1	3	13	7	
43	1	3	4	2	17	12	
	2	9	3	2	17	11	
	3	10	3	2	15	11	
	4	13	3	2	14	10	
	5	14	3	2	14	9	
	6	18	3	2	13	9	
44	1	3	4	5	14	20	
	2	4	3	4	11	19	
	3	5	3	4	11	18	
	4	8	3	4	10	19	
	5	9	3	4	8	18	
	6	20	3	4	6	18	
45	1	1	1	5	13	19	
	2	3	1	4	12	15	
	3	4	1	4	9	14	
	4	9	1	4	9	13	
	5	15	1	4	6	11	
	6	18	1	4	5	10	
46	1	3	3	5	2	18	
	2	6	3	4	1	16	
	3	16	3	3	1	14	
	4	17	3	3	1	11	
	5	18	3	1	1	10	
	6	20	3	1	1	7	
47	1	2	4	4	19	17	
	2	4	3	3	18	17	
	3	5	3	2	17	16	
	4	10	3	2	17	15	
	5	14	3	2	15	15	
	6	16	3	1	15	15	
48	1	2	3	3	5	10	
	2	4	3	2	5	7	
	3	7	3	2	5	6	
	4	8	3	1	5	5	
	5	11	3	1	5	3	
	6	18	3	1	5	2	
49	1	1	2	5	18	20	
	2	4	2	5	16	20	
	3	5	2	5	14	20	
	4	6	2	5	12	20	
	5	8	2	5	12	19	
	6	10	2	5	9	20	
50	1	3	5	2	13	18	
	2	4	4	2	11	17	
	3	9	4	2	9	16	
	4	12	4	2	8	14	
	5	16	3	2	6	13	
	6	18	3	2	5	12	
51	1	1	5	3	11	19	
	2	12	5	2	8	17	
	3	13	5	2	8	16	
	4	14	5	1	6	16	
	5	15	5	1	4	14	
	6	16	5	1	1	14	
52	1	0	0	0	0	0	
************************************************************************

 RESOURCE AVAILABILITIES 
	R 1	R 2	N 1	N 2
	25	27	470	535

************************************************************************
